; faust :: corpus-study/repo_src/faust/faust/tables/recovery.py :: EVENT 'Recovery.completed' :: structured encoding (verdict: unsat)
; Generated by snf-pipeline (encoder.py) -- run with any
; SMT-LIB2-compliant solver, e.g. `z3 faust__corpus-study_repo_src_faust_faust_tables_recovery.py__Recovery.completed__structured.smt2`
; benchmark generated from python API
(set-info :status unknown)
(assert
 false)
(check-sat)
